
Gurobi 10.0.3 (linux64, gurobi_cl) logging started Thu Nov  9 11:53:04 2023

Set parameter Username
Set parameter TimeLimit to value 3600
Set parameter LogFile to value "RCPSP_1302.log"
Set parameter Threads to value 32
Academic license - for non-commercial use only - expires 2024-11-06
Using license file /home/jrivera6/gurobi-licenses/v1003/compute-0-36/gurobi.lic

Gurobi Optimizer version 10.0.3 build v10.0.3rc0 (linux64)
Copyright (c) 2023, Gurobi Optimization, LLC

Read MPS format model from file RCPSP_1302.mps
Reading time = 0.08 seconds
RCPSP_1302: 42975 rows, 17020 columns, 134609 nonzeros

CPU model: Intel(R) Xeon(R) Gold 6130 CPU @ 2.10GHz, instruction set [SSE2|AVX|AVX2|AVX512]
Thread count: 32 physical cores, 32 logical processors, using up to 32 threads

Optimize a model with 42975 rows, 17020 columns and 134609 nonzeros
Model fingerprint: 0xa977ce45
Variable types: 92 continuous, 16928 integer (16928 binary)
Coefficient statistics:
  Matrix range     [1e+00, 5e+02]
  Objective range  [1e+00, 1e+00]
  Bounds range     [1e+00, 1e+00]
  RHS range        [1e+00, 5e+02]
Presolve removed 7305 rows and 1322 columns (presolve time = 5s) ...
Presolve removed 9559 rows and 2711 columns
Presolve time: 7.12s
Presolved: 33416 rows, 14309 columns, 107927 nonzeros
Variable types: 91 continuous, 14218 integer (14218 binary)

Deterministic concurrent LP optimizer: primal and dual simplex (primal and dual model)
Showing first log only...

Root relaxation presolved: 33416 rows, 14309 columns, 107927 nonzeros


Root simplex log...

Iteration    Objective       Primal Inf.    Dual Inf.      Time
       0    9.2146508e+01   1.890282e-02   1.846074e+08      8s
    1682    9.2000000e+01   0.000000e+00   0.000000e+00      8s
Concurrent spin time: 0.23s

Solved with dual simplex (primal model)

Root relaxation: objective 9.200000e+01, 5000 iterations, 1.13 seconds (0.12 work units)
Total elapsed time = 10.12s

    Nodes    |    Current Node    |     Objective Bounds      |     Work
 Expl Unexpl |  Obj  Depth IntInf | Incumbent    BestBd   Gap | It/Node Time

     0     0   92.00000    0    2          -   92.00000      -     -   10s
     0     0   92.00000    0    2          -   92.00000      -     -   20s
     0     0   92.00000    0    2          -   92.00000      -     -   21s
     0     0   92.00000    0    4          -   92.00000      -     -   23s
     0     0   92.00000    0    2          -   92.00000      -     -   25s
     0     0   92.00000    0    2          -   92.00000      -     -   26s
H    0     0                      92.0000000   92.00000  0.00%     -   27s
     0     0   92.00000    0    2   92.00000   92.00000  0.00%     -   27s

Cutting planes:
  Gomory: 1
  MIR: 13
  RLT: 2
  Relax-and-lift: 2

Explored 1 nodes (13034 simplex iterations) in 27.50 seconds (7.04 work units)
Thread count was 32 (of 32 available processors)

Solution count 1: 92 

Optimal solution found (tolerance 1.00e-04)
Best objective 9.200000000000e+01, best bound 9.200000000000e+01, gap 0.0000%

Wrote result file 'RCPSP_1302.sol'

